k = 58;
b = 29;
AtomicConstraints =  [|
1, 2|
	1, 3|
	1, 4|
	1, 5|
	1, 6|
	1, 7|
	1, 8|
	1, 9|
	1, 10|
	1, 11|
	1, 12|
	1, 13|
	1, 48|
	1, 47|
	1, 51|
	1, 57|
	1, 50|
	2, 3|
	2, 4|
	2, 48|
	2, 47|
	2, 51|
	3, 4|
	3, 48|
	3, 47|
	3, 51|
	4, 48|
	4, 47|
	4, 51|
	5, 4|
	5, 48|
	5, 47|
	5, 51|
	6, 11|
	6, 12|
	6, 13|
	6, 48|
	6, 47|
	6, 51|
	7, 11|
	7, 12|
	7, 13|
	7, 48|
	7, 47|
	7, 51|
	7, 57|
	8, 2|
	8, 3|
	8, 4|
	8, 5|
	8, 6|
	8, 7|
	8, 11|
	8, 12|
	8, 13|
	8, 48|
	8, 47|
	8, 51|
	8, 57|
	9, 2|
	9, 3|
	9, 4|
	9, 5|
	9, 6|
	9, 7|
	9, 11|
	9, 12|
	9, 13|
	9, 48|
	9, 47|
	9, 51|
	9, 57|
	10, 2|
	10, 3|
	10, 4|
	10, 5|
	10, 6|
	10, 7|
	10, 11|
	10, 12|
	10, 13|
	10, 48|
	10, 47|
	10, 51|
	10, 57|
	12, 11|
	12, 51|
	13, 11|
	13, 12|
	13, 47|
	13, 51|
	14, 2|
	14, 3|
	14, 4|
	14, 5|
	14, 6|
	14, 7|
	14, 11|
	14, 12|
	14, 13|
	14, 48|
	14, 47|
	14, 51|
	14, 53|
	14, 57|
	14, 56|
	14, 49|
	15, 2|
	15, 3|
	15, 4|
	15, 5|
	15, 6|
	15, 7|
	15, 10|
	15, 11|
	15, 12|
	15, 13|
	15, 48|
	15, 47|
	15, 51|
	15, 53|
	15, 57|
	15, 56|
	15, 49|
	16, 2|
	16, 3|
	16, 4|
	16, 5|
	16, 6|
	16, 7|
	16, 9|
	16, 10|
	16, 11|
	16, 12|
	16, 13|
	16, 48|
	16, 47|
	16, 51|
	16, 57|
	16, 56|
	16, 49|
	17, 36|
	17, 18|
	17, 19|
	17, 33|
	17, 20|
	17, 35|
	17, 21|
	17, 22|
	17, 40|
	17, 43|
	17, 37|
	17, 44|
	17, 23|
	17, 25|
	17, 32|
	17, 26|
	17, 28|
	33, 36|
	33, 32|
	33, 28|
	20, 36|
	20, 32|
	20, 28|
	35, 36|
	35, 18|
	35, 19|
	21, 18|
	21, 19|
	22, 18|
	22, 19|
	40, 41|
	42, 41|
	39, 38|
	34, 32|
	43, 36|
	43, 33|
	43, 20|
	43, 32|
	43, 28|
	37, 36|
	37, 18|
	37, 19|
	37, 20|
	37, 35|
	37, 21|
	37, 22|
	37, 32|
	37, 28|
	44, 36|
	44, 18|
	44, 19|
	44, 35|
	44, 21|
	44, 22|
	44, 40|
	44, 28|
	23, 36|
	23, 18|
	23, 19|
	23, 41|
	23, 35|
	23, 21|
	23, 22|
	23, 40|
	23, 42|
	31, 18|
	31, 19|
	31, 41|
	31, 21|
	31, 22|
	31, 40|
	31, 42|
	24, 18|
	24, 19|
	24, 41|
	24, 22|
	24, 40|
	24, 42|
	25, 36|
	25, 18|
	25, 19|
	25, 33|
	25, 20|
	25, 35|
	25, 21|
	25, 22|
	25, 40|
	25, 37|
	25, 44|
	25, 23|
	25, 32|
	25, 28|
	26, 36|
	26, 18|
	26, 19|
	26, 41|
	26, 33|
	26, 20|
	26, 35|
	26, 21|
	26, 22|
	26, 40|
	26, 42|
	26, 37|
	26, 44|
	26, 23|
	26, 31|
	26, 32|
	26, 28|
	27, 36|
	27, 18|
	27, 19|
	27, 41|
	27, 38|
	27, 35|
	27, 21|
	27, 22|
	27, 40|
	27, 42|
	27, 39|
	27, 44|
	27, 23|
	27, 31|
	27, 24|
	27, 32|
	27, 28|
	30, 36|
	30, 18|
	30, 33|
	30, 20|
	30, 35|
	30, 34|
	30, 43|
	30, 32|
	30, 28|
	45, 36|
	45, 18|
	45, 19|
	45, 33|
	45, 20|
	45, 35|
	45, 21|
	45, 22|
	45, 34|
	45, 43|
	45, 37|
	45, 32|
	45, 28|
	29, 36|
	29, 18|
	29, 19|
	29, 33|
	29, 20|
	29, 35|
	29, 21|
	29, 22|
	29, 43|
	29, 37|
	29, 44|
	29, 25|
	29, 32|
	29, 28|
	48, 47|
	48, 51|
	47, 51|
	46, 36|
	46, 17|
	46, 18|
	46, 19|
	46, 41|
	46, 38|
	46, 33|
	46, 20|
	46, 35|
	46, 21|
	46, 22|
	46, 40|
	46, 42|
	46, 39|
	46, 34|
	46, 43|
	46, 37|
	46, 44|
	46, 23|
	46, 31|
	46, 24|
	46, 25|
	46, 32|
	46, 26|
	46, 27|
	46, 28|
	46, 30|
	46, 45|
	46, 29|
	46, 57|
	55, 53|
	52, 53|
	52, 55|
	58, 2|
	58, 3|
	58, 4|
	58, 5|
	58, 6|
	58, 7|
	58, 11|
	58, 12|
	58, 13|
	58, 36|
	58, 17|
	58, 18|
	58, 19|
	58, 41|
	58, 38|
	58, 33|
	58, 20|
	58, 35|
	58, 21|
	58, 22|
	58, 40|
	58, 42|
	58, 39|
	58, 34|
	58, 43|
	58, 37|
	58, 44|
	58, 23|
	58, 31|
	58, 24|
	58, 25|
	58, 32|
	58, 26|
	58, 27|
	58, 28|
	58, 30|
	58, 45|
	58, 29|
	58, 48|
	58, 47|
	58, 51|
	58, 46|
	58, 57|
	58, 50|
	58, 54|
	50, 57|
	54, 11|
	54, 12|
	54, 13|
	54, 36|
	54, 17|
	54, 18|
	54, 19|
	54, 41|
	54, 38|
	54, 33|
	54, 20|
	54, 35|
	54, 21|
	54, 22|
	54, 40|
	54, 42|
	54, 39|
	54, 34|
	54, 43|
	54, 37|
	54, 44|
	54, 23|
	54, 31|
	54, 24|
	54, 25|
	54, 32|
	54, 26|
	54, 27|
	54, 28|
	54, 30|
	54, 45|
	54, 29|
	54, 48|
	54, 47|
	54, 51|
	54, 46|
	54, 57|
	54, 50|
	56, 2|
	56, 3|
	56, 4|
	56, 48|
	56, 47|
	56, 51|
	49, 2|
	49, 3|
	49, 4|
	49, 48|
	49, 47|
	49, 51|];
DisjunctiveConstraints =  [|1, 32, 3, 1|
	6, 7, 6, 5|
	6, 11, 40, 6|
	6, 12, 41, 6|
	7, 11, 7, 40|
	7, 12, 7, 41|
	7, 13, 7, 42|
	7, 57, 28, 7|
	9, 8, 9, 10|
	14, 10, 39, 14|
	15, 9, 38, 15|
	15, 16, 15, 14|
	15, 39, 15, 10|
	16, 8, 37, 16|
	16, 38, 16, 9|
	17, 23, 52, 17|
	36, 18, 36, 28|
	18, 19, 18, 36|
	20, 35, 20, 33|
	35, 21, 35, 20|
	21, 22, 21, 35|
	44, 23, 44, 37|
	23, 31, 23, 44|
	31, 24, 31, 23|
	27, 38, 9, 27|
	27, 39, 10, 27|
	45, 37, 8, 45|
	29, 17, 29, 45|
	28, 36, 28, 32|
	46, 38, 46, 9|
	46, 39, 46, 10|
	58, 54, 25, 58|];
SoftAtomicConstraints =  [|
6, 5|
7, 6|
8, 9|
9, 10|
15, 14|
16, 15|
19, 18|
41, 19|
35, 20|
22, 21|
40, 22|
31, 23|
26, 25|
27, 26|
36, 28|
17, 29|
45, 30|
24, 31|
28, 32|
20, 33|
43, 34|
21, 35|
18, 36|
44, 37|
42, 40|
38, 41|
39, 42|
37, 43|
23, 44|
29, 45|
56, 49|];
DirectSuccessors =  [];
